Welcome to the CBC MILP Solver 
Version: Trunk
Build Date: Apr 16 2020 

Starting solution of the Linear programming relaxation problem using Primal Simplex

Using Python-MIP package version 1.8.1
Machines:  3 Jobs:  3
Order: 
Job  0 : machine 1 ( 7 ) machine 2 ( 7 ) machine 0 ( 1 ) 
Job  1 : machine 1 ( 4 ) machine 0 ( 3 ) machine 2 ( 7 ) 
Job  2 : machine 1 ( 7 ) machine 2 ( 6 ) machine 0 ( 2 ) 
K:  33
Job  0 , e: machine  0 ( 14 ) machine  1 ( 0 ) machine  2 ( 7 ) 
Job  1 , e: machine  0 ( 4 ) machine  1 ( 0 ) machine  2 ( 7 ) 
Job  2 , e: machine  0 ( 13 ) machine  1 ( 0 ) machine  2 ( 7 ) 
Job  0 , f: machine  0 ( 0 ) machine  1 ( 8 ) machine  2 ( 1 ) 
Job  1 , f: machine  0 ( 7 ) machine  1 ( 10 ) machine  2 ( 0 ) 
Job  2 , f: machine  0 ( 0 ) machine  1 ( 8 ) machine  2 ( 2 ) 
EST and LST:
Job: 0 Machine: 0 EST: 14 LST: 32
Job: 0 Machine: 1 EST: 0 LST: 18
Job: 0 Machine: 2 EST: 7 LST: 25
Job: 1 Machine: 0 EST: 4 LST: 23
Job: 1 Machine: 1 EST: 0 LST: 19
Job: 1 Machine: 2 EST: 7 LST: 26
Job: 2 Machine: 0 EST: 13 LST: 31
Job: 2 Machine: 1 EST: 0 LST: 18
Job: 2 Machine: 2 EST: 7 LST: 25
Order:
Job: 0 Machine: 0 = 2 
Job: 0 Machine: 1 = 0 
Job: 0 Machine: 2 = 1 
Job: 1 Machine: 0 = 1 
Job: 1 Machine: 1 = 0 
Job: 1 Machine: 2 = 2 
Job: 2 Machine: 0 = 2 
Job: 2 Machine: 1 = 0 
Job: 2 Machine: 2 = 1 
Distances:
Job 0, Machine 1 -> Machine 2: distance 7
Job 0, Machine 1 -> Machine 0: distance 14
Job 0, Machine 2 -> Machine 0: distance 7
Job 1, Machine 1 -> Machine 0: distance 4
Job 1, Machine 1 -> Machine 2: distance 7
Job 1, Machine 0 -> Machine 2: distance 3
Job 2, Machine 1 -> Machine 2: distance 7
Job 2, Machine 1 -> Machine 0: distance 13
Job 2, Machine 2 -> Machine 0: distance 6
McCormic linearization
14.0 13.0 2
0.0 0.0 4
0.0 0.0 7
0.0 0.0 7
7.0 7.0 7
7.0 7.0 6
7.0 7.0 6
[(0, 1), (1, 2), (0, 0), (0, 2), (2, 1), (2, 0), (1, 1)]
obj:  0.0
solutions:  1
+ 0.14285714285714285x(0,1) + 0.14285714285714285x(2,1) 
C:  18.5
x(0,0) = 17.50	 x(0,1) = 3.50	 x(0,2) = 10.50	 
x(1,0) = 8.50	 x(1,1) = 4.50	 x(1,2) = 11.50	 
x(2,0) = 16.50	 x(2,1) = 3.50	 x(2,2) = 10.50	 
y(0,1,0) = 0.00	 y(1,0,0) = 1.00	 
y(0,2,0) = 0.90	 y(2,0,0) = 0.10	 
y(1,2,0) = 0.59	 y(2,1,0) = 0.41	 
y(0,1,1) = 0.22	 y(1,0,1) = 0.78	 
y(0,2,1) = 0.50	 y(2,0,1) = 0.50	 
y(1,2,1) = 0.36	 y(2,1,1) = 0.64	 
y(0,1,2) = 0.50	 y(1,0,2) = 0.50	 
y(0,2,2) = 0.42	 y(2,0,2) = 0.58	 
y(1,2,2) = 0.49	 y(2,1,2) = 0.51	 
17.5 16.5 2
3.5000000000000018 3.499999999999996 7
4.499999999999999 3.499999999999996 7
10.500000000000002 10.499999999999998 6
11.5 10.499999999999998 6
obj:  0.6380952380952378
solutions:  1
+ 0.06666666666666667x(0,1) + 0.06666666666666667x(2,1) + 0.03809523809523809x(1,1) 
[(0, 1), (1, 2), (0, 0), (0, 2), (2, 1), (2, 0), (1, 1)]
cliques:  1 mip: 32
C:  21.546296296296298
x(0,0) = 20.55	 x(0,1) = 6.55	 x(0,2) = 13.55	 
x(1,0) = 10.05	 x(1,1) = 6.05	 x(1,2) = 13.05	 
x(2,0) = 18.55	 x(2,1) = 5.00	 x(2,2) = 12.00	 
y(0,1,0) = 0.00	 y(1,0,0) = 1.00	 
y(0,2,0) = 0.00	 y(2,0,0) = 1.00	 
y(1,2,0) = 0.53	 y(2,1,0) = 0.47	 
y(0,1,1) = 0.70	 y(1,0,1) = 0.30	 
y(0,2,1) = 0.22	 y(2,0,1) = 0.78	 
y(1,2,1) = 0.24	 y(2,1,1) = 0.76	 
y(0,1,2) = 0.25	 y(1,0,2) = 0.75	 
y(0,2,2) = 0.19	 y(2,0,2) = 0.81	 
y(1,2,2) = 0.69	 y(2,1,2) = 0.31	 
6.546296296296299 6.046296296296299 4
6.546296296296299 4.998677248677245 7
6.046296296296299 4.998677248677245 7
13.546296296296296 13.046296296296296 7
13.546296296296296 11.998677248677245 6
13.046296296296296 11.998677248677245 6
obj:  0.9455685408066361
solutions:  1
+ 0.025641025641025657x(1,2) + 0.021978021978021987x(2,2) + 0.025641025641025637x(0,2) 
[(0, 1), (1, 2), (2, 1), (1, 1), (2, 2), (0, 2)]
cliques:  1 mip: 65
C:  22.836784409256843
x(0,0) = 21.84	 x(0,1) = 7.84	 x(0,2) = 14.84	 
x(1,0) = 12.84	 x(1,1) = 3.84	 x(1,2) = 15.84	 
x(2,0) = 19.84	 x(2,1) = 4.97	 x(2,2) = 11.97	 
y(0,1,0) = 0.00	 y(1,0,0) = 1.00	 
y(0,2,0) = 0.00	 y(2,0,0) = 1.00	 
y(1,2,0) = 0.63	 y(2,1,0) = 0.37	 
y(0,1,1) = 0.00	 y(1,0,1) = 1.00	 
y(0,2,1) = 0.61	 y(2,0,1) = 0.39	 
y(1,2,1) = 0.64	 y(2,1,1) = 0.36	 
y(0,1,2) = 0.46	 y(1,0,2) = 0.54	 
y(0,2,2) = 0.52	 y(2,0,2) = 0.48	 
y(1,2,2) = 0.54	 y(2,1,2) = 0.46	 
7.836784409256839 3.8367844092583874 4
7.836784409256839 4.9707673568812245 7
14.836784409256841 11.970767356881225 6
15.836784409256843 11.970767356881225 6
obj:  1.0000000000000002
erro
[(0, 1), (1, 2), (2, 1), (1, 1), (2, 2), (0, 2)]
cliques:  0 mip: 55
C:  24.1919988560154
x(0,0) = 23.19	 x(0,1) = 8.71	 x(0,2) = 15.71	 
x(1,0) = 14.19	 x(1,1) = 4.93	 x(1,2) = 17.19	 
x(2,0) = 16.47	 x(2,1) = 3.47	 x(2,2) = 10.47	 
y(0,1,0) = 0.00	 y(1,0,0) = 1.00	 
y(0,2,0) = 0.00	 y(2,0,0) = 1.00	 
y(1,2,0) = 0.37	 y(2,1,0) = 0.63	 
y(0,1,1) = 0.08	 y(1,0,1) = 0.92	 
y(0,2,1) = 0.07	 y(2,0,1) = 0.93	 
y(1,2,1) = 0.22	 y(2,1,1) = 0.78	 
y(0,1,2) = 0.78	 y(1,0,2) = 0.22	 
y(0,2,2) = 0.03	 y(2,0,2) = 0.97	 
y(1,2,2) = 0.22	 y(2,1,2) = 0.78	 
8.710985465611373 4.930564954867236 4
8.710985465611373 3.471548845893067 7
4.930564954867236 3.471548845893067 7
15.710985465611373 10.471548845893066 6
obj:  1.0000000000000002
erro
[(0, 1), (1, 2), (0, 2), (2, 1), (2, 0), (1, 0), (1, 1)]
cliques:  0 mip: 80
C:  25.000000000000004
x(0,0) = 24.00	 x(0,1) = 4.37	 x(0,2) = 12.52	 
x(1,0) = 15.00	 x(1,1) = 10.51	 x(1,2) = 18.00	 
x(2,0) = 17.63	 x(2,1) = 4.63	 x(2,2) = 11.63	 
y(0,1,0) = 0.00	 y(1,0,0) = 1.00	 
y(0,2,0) = 0.00	 y(2,0,0) = 1.00	 
y(1,2,0) = 0.16	 y(2,1,0) = 0.84	 
y(0,1,1) = 0.94	 y(1,0,1) = 0.06	 
y(0,2,1) = 0.43	 y(2,0,1) = 0.57	 
y(1,2,1) = 0.16	 y(2,1,1) = 0.84	 
y(0,1,2) = 0.94	 y(1,0,2) = 0.06	 
y(0,2,2) = 0.21	 y(2,0,2) = 0.79	 
y(1,2,2) = 0.06	 y(2,1,2) = 0.94	 
10.51203767584151 4.627149584971709 7
12.524882262995357 11.627149584971708 6
obj:  1.0
erro
[(0, 1), (1, 2), (0, 2), (2, 1), (2, 0), (1, 0), (1, 1)]
cliques:  0 mip: 75
C:  25.0
x(0,0) = 24.00	 x(0,1) = 5.75	 x(0,2) = 17.00	 
x(1,0) = 12.60	 x(1,1) = 8.60	 x(1,2) = 18.00	 
x(2,0) = 22.00	 x(2,1) = 5.21	 x(2,2) = 12.21	 
y(0,1,0) = 0.00	 y(1,0,0) = 1.00	 
y(0,2,0) = 0.00	 y(2,0,0) = 1.00	 
y(1,2,0) = 0.73	 y(2,1,0) = 0.27	 
y(0,1,1) = 0.71	 y(1,0,1) = 0.29	 
y(0,2,1) = 0.47	 y(2,0,1) = 0.53	 
y(1,2,1) = 0.68	 y(2,1,1) = 0.32	 
y(0,1,2) = 0.70	 y(1,0,2) = 0.30	 
y(0,2,2) = 0.17	 y(2,0,2) = 0.83	 
y(1,2,2) = 0.04	 y(2,1,2) = 0.96	 
24.0 22.000000000000007 2
5.750120621760172 5.2084330096267575 7
8.602226518481533 5.2084330096267575 7
17.0 12.20843300962676 6
18.0 12.20843300962676 6
obj:  1.058274109463187
erro
[(0, 1), (1, 2), (0, 0), (0, 2), (2, 1), (2, 0), (1, 1)]
cliques:  0 mip: 64
C:  25.0
x(0,0) = 23.13	 x(0,1) = 5.77	 x(0,2) = 16.13	 
x(1,0) = 12.63	 x(1,1) = 8.63	 x(1,2) = 18.00	 
x(2,0) = 22.09	 x(2,1) = 5.17	 x(2,2) = 12.17	 
y(0,1,0) = 0.00	 y(1,0,0) = 1.00	 
y(0,2,0) = 0.43	 y(2,0,0) = 0.57	 
y(1,2,0) = 0.73	 y(2,1,0) = 0.27	 
y(0,1,1) = 0.70	 y(1,0,1) = 0.30	 
y(0,2,1) = 0.47	 y(2,0,1) = 0.53	 
y(1,2,1) = 0.68	 y(2,1,1) = 0.32	 
y(0,1,2) = 0.70	 y(1,0,2) = 0.30	 
y(0,2,2) = 0.17	 y(2,0,2) = 0.83	 
y(1,2,2) = 0.03	 y(2,1,2) = 0.97	 
23.134071861350016 22.08854329706208 2
5.774634660959415 5.16649212848609 7
8.633820452054112 5.16649212848609 7
16.134071861350016 12.166492128486091 6
18.000000000000004 12.166492128486091 6
obj:  1.0583158984222378
erro
[(0, 1), (1, 2), (0, 0), (0, 2), (2, 1), (2, 0), (1, 1)]
cliques:  0 mip: 78
C:  25.0
x(0,0) = 23.62	 x(0,1) = 6.62	 x(0,2) = 16.62	 
x(1,0) = 8.65	 x(1,1) = 4.65	 x(1,2) = 18.00	 
x(2,0) = 18.72	 x(2,1) = 5.72	 x(2,2) = 12.72	 
y(0,1,0) = 0.00	 y(1,0,0) = 1.00	 
y(0,2,0) = 0.19	 y(2,0,0) = 0.81	 
y(1,2,0) = 0.71	 y(2,1,0) = 0.29	 
y(0,1,1) = 0.56	 y(1,0,1) = 0.44	 
y(0,2,1) = 0.48	 y(2,0,1) = 0.52	 
y(1,2,1) = 0.56	 y(2,1,1) = 0.44	 
y(0,1,2) = 0.32	 y(1,0,2) = 0.68	 
y(0,2,2) = 0.09	 y(2,0,2) = 0.91	 
y(1,2,2) = 0.48	 y(2,1,2) = 0.52	 
6.620199088787619 4.649216531362913 4
6.620199088787619 5.723105750433574 7
16.624458787713948 12.723105750433575 6
17.999999999999996 12.723105750433575 6
obj:  1.0000000000000007
erro
[(0, 1), (1, 2), (2, 1), (1, 1), (2, 2), (0, 2)]
cliques:  0 mip: 77
C:  24.999999999999996
x(0,0) = 18.61	 x(0,1) = 4.61	 x(0,2) = 11.61	 
x(1,0) = 13.18	 x(1,1) = 6.69	 x(1,2) = 18.00	 
x(2,0) = 20.22	 x(2,1) = 6.57	 x(2,2) = 14.22	 
y(0,1,0) = 0.00	 y(1,0,0) = 1.00	 
y(0,2,0) = 0.19	 y(2,0,0) = 0.81	 
y(1,2,0) = 0.75	 y(2,1,0) = 0.25	 
y(0,1,1) = 0.80	 y(1,0,1) = 0.20	 
y(0,2,1) = 0.59	 y(2,0,1) = 0.41	 
y(1,2,1) = 0.82	 y(2,1,1) = 0.18	 
y(0,1,2) = 0.98	 y(1,0,2) = 0.02	 
y(0,2,2) = 0.57	 y(2,0,2) = 0.43	 
y(1,2,2) = 0.44	 y(2,1,2) = 0.56	 
6.69116393408206 6.566990057253253 7
17.99999999999999 14.217514554582323 6
obj:  1.0000000000000002
erro
[(0, 1), (1, 2), (2, 1), (1, 1), (2, 2), (0, 2)]
cliques:  0 mip: 76
C:  24.999999999999996
x(0,0) = 20.92	 x(0,1) = 3.82	 x(0,2) = 13.92	 
x(1,0) = 13.49	 x(1,1) = 4.77	 x(1,2) = 16.49	 
x(2,0) = 21.45	 x(2,1) = 8.45	 x(2,2) = 15.45	 
y(0,1,0) = 0.00	 y(1,0,0) = 1.00	 
y(0,2,0) = 0.13	 y(2,0,0) = 0.87	 
y(1,2,0) = 0.79	 y(2,1,0) = 0.21	 
y(0,1,1) = 0.37	 y(1,0,1) = 0.63	 
y(0,2,1) = 0.82	 y(2,0,1) = 0.18	 
y(1,2,1) = 0.91	 y(2,1,1) = 0.09	 
y(0,1,2) = 0.82	 y(1,0,2) = 0.18	 
y(0,2,2) = 0.74	 y(2,0,2) = 0.26	 
y(1,2,2) = 0.69	 y(2,1,2) = 0.31	 
16.49488998723663 15.453597622086516 6
obj:  0.9999999999999999
erro
[(0, 1), (1, 2), (0, 0), (0, 2), (2, 1), (2, 0), (1, 1)]
cliques:  0 mip: 78
C:  25.000000000000004
x(0,0) = 24.00	 x(0,1) = 4.72	 x(0,2) = 15.81	 
x(1,0) = 9.08	 x(1,1) = 5.08	 x(1,2) = 17.17	 
x(2,0) = 22.00	 x(2,1) = 7.38	 x(2,2) = 15.06	 
y(0,1,0) = 0.00	 y(1,0,0) = 1.00	 
y(0,2,0) = 0.00	 y(2,0,0) = 1.00	 
y(1,2,0) = 0.78	 y(2,1,0) = 0.22	 
y(0,1,1) = 0.19	 y(1,0,1) = 0.81	 
y(0,2,1) = 0.71	 y(2,0,1) = 0.29	 
y(1,2,1) = 0.85	 y(2,1,1) = 0.15	 
y(0,1,2) = 0.77	 y(1,0,2) = 0.23	 
y(0,2,2) = 0.62	 y(2,0,2) = 0.38	 
y(1,2,2) = 0.65	 y(2,1,2) = 0.35	 
24.0 22.000000000000004 2
15.805236660987541 15.061647953654726 6
17.171489992375104 15.061647953654726 6
obj:  1.0
erro
[(0, 1), (1, 2), (0, 0), (0, 2), (2, 1), (2, 0), (1, 1)]
cliques:  0 mip: 78
C:  25.000000000000004
x(0,0) = 24.00	 x(0,1) = 6.00	 x(0,2) = 17.00	 
x(1,0) = 7.88	 x(1,1) = 3.88	 x(1,2) = 10.88	 
x(2,0) = 22.00	 x(2,1) = 6.95	 x(2,2) = 14.97	 
y(0,1,0) = 0.00	 y(1,0,0) = 1.00	 
y(0,2,0) = 0.00	 y(2,0,0) = 1.00	 
y(1,2,0) = 0.67	 y(2,1,0) = 0.33	 
y(0,1,1) = 0.08	 y(1,0,1) = 0.92	 
y(0,2,1) = 0.58	 y(2,0,1) = 0.42	 
y(1,2,1) = 0.82	 y(2,1,1) = 0.18	 
y(0,1,2) = 0.05	 y(1,0,2) = 0.95	 
y(0,2,2) = 0.54	 y(2,0,2) = 0.46	 
y(1,2,2) = 0.62	 y(2,1,2) = 0.38	 
24.0 22.000000000000004 2
5.997760629741042 3.87906664492744 4
17.0 10.87906664492744 7
17.0 14.970861111119824 6
obj:  1.0109598517008018
erro
[(0, 1), (1, 2), (0, 0), (0, 2), (2, 1), (2, 0), (1, 1)]
cliques:  0 mip: 69
C:  25.000000000000004
x(0,0) = 23.51	 x(0,1) = 4.89	 x(0,2) = 15.38	 
x(1,0) = 11.63	 x(1,1) = 6.21	 x(1,2) = 14.63	 
x(2,0) = 20.02	 x(2,1) = 6.56	 x(2,2) = 14.02	 
y(0,1,0) = 0.00	 y(1,0,0) = 1.00	 
y(0,2,0) = 0.24	 y(2,0,0) = 0.76	 
y(1,2,0) = 0.70	 y(2,1,0) = 0.30	 
y(0,1,1) = 0.23	 y(1,0,1) = 0.77	 
y(0,2,1) = 0.66	 y(2,0,1) = 0.34	 
y(1,2,1) = 0.84	 y(2,1,1) = 0.16	 
y(0,1,2) = 0.54	 y(1,0,2) = 0.46	 
y(0,2,2) = 0.56	 y(2,0,2) = 0.44	 
y(1,2,2) = 0.40	 y(2,1,2) = 0.60	 
15.384697720529072 14.629746701468617 7
15.384697720529072 14.015332910283345 6
14.629746701468617 14.015332910283345 6
obj:  1.0
erro
[(0, 1), (1, 2), (2, 1), (1, 1), (2, 2), (0, 2)]
cliques:  0 mip: 87
C:  24.999999999999996
x(0,0) = 23.39	 x(0,1) = 6.72	 x(0,2) = 16.39	 
x(1,0) = 9.41	 x(1,1) = 3.51	 x(1,2) = 13.32	 
x(2,0) = 22.61	 x(2,1) = 6.37	 x(2,2) = 14.58	 
y(0,1,0) = 0.00	 y(1,0,0) = 1.00	 
y(0,2,0) = 0.31	 y(2,0,0) = 0.69	 
y(1,2,0) = 0.57	 y(2,1,0) = 0.43	 
y(0,1,1) = 0.03	 y(1,0,1) = 0.97	 
y(0,2,1) = 0.50	 y(2,0,1) = 0.50	 
y(1,2,1) = 0.86	 y(2,1,1) = 0.14	 
y(0,1,2) = 0.38	 y(1,0,2) = 0.62	 
y(0,2,2) = 0.48	 y(2,0,2) = 0.52	 
y(1,2,2) = 0.61	 y(2,1,2) = 0.39	 
23.389543208249833 22.61370750031778 2
6.717225637731223 3.5130021492092345 4
6.717225637731223 6.368583520049483 7
16.389543208249833 13.32071318131248 7
16.389543208249833 14.584815320519562 6
obj:  1.0062159304885894
erro
[(0, 1), (1, 2), (0, 0), (0, 2), (2, 1), (2, 0), (1, 1)]
cliques:  0 mip: 87
C:  25.000000000000004
x(0,0) = 23.38	 x(0,1) = 7.71	 x(0,2) = 16.38	 
x(1,0) = 9.25	 x(1,1) = 4.67	 x(1,2) = 15.10	 
x(2,0) = 22.22	 x(2,1) = 5.16	 x(2,2) = 13.20	 
y(0,1,0) = 0.00	 y(1,0,0) = 1.00	 
y(0,2,0) = 0.31	 y(2,0,0) = 0.69	 
y(1,2,0) = 0.52	 y(2,1,0) = 0.48	 
y(0,1,1) = 0.04	 y(1,0,1) = 0.96	 
y(0,2,1) = 0.34	 y(2,0,1) = 0.66	 
y(1,2,1) = 0.85	 y(2,1,1) = 0.15	 
y(0,1,2) = 0.61	 y(1,0,2) = 0.39	 
y(0,2,2) = 0.31	 y(2,0,2) = 0.69	 
y(1,2,2) = 0.37	 y(2,1,2) = 0.63	 
23.381070901434885 22.217167260798657 2
7.71325681227015 4.669816318977209 4
7.71325681227015 5.160765284678668 7
16.381070901434885 15.102728063402338 7
16.381070901434885 13.199072147535627 6
15.102728063402338 13.199072147535627 6
obj:  1.036165904329053
erro
[(0, 1), (1, 2), (0, 0), (0, 2), (2, 1), (2, 0), (1, 1)]
cliques:  0 mip: 0
iterações: 15 cortes cliques encontrados: 3 mip: 1029 objective:  25.000000000000004
Coin0506I Presolve 65 (-61) rows, 39 (-25) columns and 202 (-86) elements
Clp1000I sum of infeasibilities 3.24924e-06 - average 4.99884e-08, 0 fixed columns
Coin0506I Presolve 65 (0) rows, 39 (0) columns and 202 (0) elements
Clp0029I End of values pass after 39 iterations
Clp0000I Optimal - objective value 15
Clp0000I Optimal - objective value 15
Coin0511I After Postsolve, objective 15, infeasibilities - dual 0 (0), primal 0 (0)
Clp0000I Optimal - objective value 15
Clp0000I Optimal - objective value 15
Clp0000I Optimal - objective value 15
Coin0511I After Postsolve, objective 15, infeasibilities - dual 0 (0), primal 0 (0)
Clp0032I Optimal objective 15 - 0 iterations time 0.002, Presolve 0.00, Idiot 0.00
Coin3009W Conflict graph built in 0.000 seconds, density: 0.147%
